
<<< setup


<<< generate

Version identifier: 12.10.0.0 | 2019-11-26 | 843d4de2ae
CPXPARAM_TimeLimit                               1200
Tried aggregator 2 times.
MIP Presolve eliminated 5169381 rows and 2935796 columns.
MIP Presolve modified 417922 coefficients.
Aggregator did 1579 substitutions.
Reduced MIP has 79690 rows, 81675 columns, and 496771 nonzeros.
Reduced MIP has 81625 binaries, 0 generals, 0 SOSs, and 0 indicators.
Presolve time = 6.50 sec. (3817.00 ticks)
Found incumbent of value 0.000000 after 9.91 sec. (4983.36 ticks)
Probing fixed 2691 vars, tightened 0 bounds.
Probing time = 11.16 sec. (2159.96 ticks)
Tried aggregator 2 times.
Detecting symmetries...
MIP Presolve eliminated 2174 rows and 2693 columns.
Aggregator did 1 substitutions.
Reduced MIP has 77515 rows, 78981 columns, and 481438 nonzeros.
Reduced MIP has 78931 binaries, 0 generals, 0 SOSs, and 0 indicators.
Presolve time = 0.78 sec. (458.91 ticks)
Probing fixed 7 vars, tightened 0 bounds.
Probing time = 1.09 sec. (171.63 ticks)
Clique table members: 278315.
MIP emphasis: balance optimality and feasibility.
MIP search method: dynamic search.
Parallel mode: deterministic, using up to 4 threads.
Root relaxation solution time = 8.77 sec. (4257.53 ticks)

        Nodes                                         Cuts/
   Node  Left     Objective  IInf  Best Integer    Best Bound    ItCnt     Gap

*     0+    0                            0.0000   127673.0000              --- 
      0     0   127673.0000  1107        0.0000   127673.0000    14924     --- 
      0     0   127673.0000  1107        0.0000     Cuts: 232    56995     --- 
      0     0   127673.0000  1107        0.0000    Cuts: 9998    74504     --- 
      0     0   127673.0000  1107        0.0000     Cuts: 258    89128     --- 
      0     0   127673.0000  1107        0.0000    Cuts: 9888   115055     --- 
Heuristic still looking.
      0     2   127673.0000   853        0.0000   127673.0000   145238     --- 
Elapsed time = 885.99 sec. (513161.87 ticks, tree = 0.02 MB, solutions = 1)
      1     3   127673.0000   880        0.0000   127673.0000   170043     --- 
      2     3   127673.0000   869        0.0000   127673.0000   173887     --- 
      3     4   127673.0000   990        0.0000   127673.0000   192581     --- 
      4     5   127673.0000   955        0.0000   127673.0000   224891     --- 
      6     6   127673.0000  1041        0.0000   127673.0000   235678     --- 
      7     9   127673.0000  1085        0.0000   127673.0000   294094     --- 
      8    10   127673.0000  1166        0.0000   127673.0000   300592     --- 
      9    11   127673.0000  1199        0.0000   127673.0000   302758     --- 
     10     5   127673.0000   930        0.0000   127673.0000   221492     --- 
     12     7   127673.0000  1013        0.0000   127673.0000   263646     --- 
Elapsed time = 1051.66 sec. (579931.82 ticks, tree = 0.05 MB, solutions = 1)
     13     8   127673.0000   966        0.0000   127673.0000   295734     --- 
     14    13   127673.0000   962        0.0000   127673.0000   307156     --- 
     16    11   127673.0000  1381        0.0000   127673.0000   337844     --- 
     17    12   127673.0000  1126        0.0000   127673.0000   355828     --- 
     18    17   127673.0000  1269        0.0000   127673.0000   375482     --- 
     21    12   127673.0000  1129        0.0000   127673.0000   336861     --- 
     24    13   127673.0000  1285        0.0000   127673.0000   371344     --- 
     27    19   127673.0000  1209        0.0000   127673.0000   383677     --- 
     30    13   127673.0000   951        0.0000   127673.0000   339029     --- 
     31    15   127673.0000  1088        0.0000   127673.0000   373529     --- 
Elapsed time = 1109.59 sec. (600842.46 ticks, tree = 0.28 MB, solutions = 1)
     32    21   127673.0000  1240        0.0000   127673.0000   391828     --- 
     34    21   127673.0000  1301        0.0000   127673.0000   407715     --- 
     36    16   127673.0000  1036        0.0000   127673.0000   374484     --- 
     40    23   127673.0000  1186        0.0000   127673.0000   397209     --- 
     42    17   127673.0000  1158        0.0000   127673.0000   377517     --- 
     45    34   127673.0000  1100        0.0000   127673.0000   459659     --- 
     46    25   127673.0000  1160        0.0000   127673.0000   420383     --- 
     48    35   127673.0000  1087        0.0000   127673.0000   461671     --- 
     49    39   127673.0000  1219        0.0000   127673.0000   489903     --- 
     50    36   127673.0000  1167        0.0000   127673.0000   463151     --- 
Elapsed time = 1138.58 sec. (617784.16 ticks, tree = 0.77 MB, solutions = 1)
     53    45   127673.0000  1072        0.0000   127673.0000   511675     --- 
     54    46   127673.0000  1234        0.0000   127673.0000   513770     --- 
     57    38   127673.0000  1267        0.0000   127673.0000   467818     --- 
     60    52   127673.0000  1115        0.0000   127673.0000   517455     --- 
     61    50   127673.0000  1180        0.0000   127673.0000   518932     --- 
     65    52   127673.0000  1166        0.0000   127673.0000   520466     --- 
     66    53   127673.0000  1168        0.0000   127673.0000   521769     --- 
     68    62   127673.0000  1128        0.0000   127673.0000   534895     --- 
     69    55   127673.0000  1257        0.0000   127673.0000   539272     --- 
     70    56   127673.0000  1160        0.0000   127673.0000   540012     --- 
Elapsed time = 1188.78 sec. (636502.19 ticks, tree = 1.26 MB, solutions = 1)
     73    65   127673.0000  1193        0.0000   127673.0000   544240     --- 
     75    57   127673.0000  1232        0.0000   127673.0000   544639     --- 
     76    67   127673.0000  1233        0.0000   127673.0000   553352     --- 

Clique cuts applied:  8
Implied bound cuts applied:  1176
Flow cuts applied:  82
Mixed integer rounding cuts applied:  26

Root node processing (before b&c):
  Real time             =  830.81 sec. (478646.03 ticks)
Parallel b&c, 4 threads:
  Real time             =  369.78 sec. (167348.72 ticks)
  Sync time (average)   =   89.93 sec.
  Wait time (average)   =    0.00 sec.
                          ------------
Total (root+branch&cut) = 1200.59 sec. (645994.75 ticks)

<<< solve


OBJECTIVE: 0

<<< post process


<<< done

